73821.05 0
0 15 18 17 16 47 48 49 75 73 74 50 51 46 45 52 53 72 71 70 54 55 44 43 56 57 69 68 67 58 59 42 41 60 61 66 65 64 62 63 40 33 32 31 8 7 9 30 29 28 6 10 27 34 35 5 11 26 25 24 4 142 143 131 130 119 141 140 132 118 117 133 134 139 138 137 136 135 116 115 93 92 84 83 85 94 96 95 82 86 97 98 114 81 87 99 100 101 80 88 102 103 113 79 89 104 105 106 78 90 107 108 112 77 91 76 110 111 109 121 127 128 147 146 145 144 129 120 3 12 23 36 37 13 22 21 20 2 14 19 38 39 1 122 126 148 150 123 124 125 151 149